# Solution for model p01_budget_0p330
# Objective value = 3.3000000000006291e-01
Risk 3.3000000000006291e-01
0 0
1 0
3 0.001
4 30.001
5 3.0002000000000002e+01
6 40.002
7 3.6158276088980138e+01
9 75.4299730074836
c(0,1)_Rl 0.001
c(0,1)_Ru 0
c(0,3)_Rl 0
c(0,3)_Ru 0
c(3,4)_Rl 0
c(3,4)_Ru 0
c(4,5)_Rl 0
c(4,5)_Ru 0
c(3,5)_Rl 0
c(3,5)_Ru 0
c(1,2)_l 0
c(1,2)_u 3.6157276088980140e+01
c(2,7)_Fl 0
c(2,7)_Fu 1.8030052062973567e-01
c(1,7)_Rl 0
c(1,7)_Ru 0
c(5,6)_Rl 0
c(5,6)_Ru 0
c(3,6)_Rl 0
c(3,6)_Ru 0
c(7,8)_l 0
c(7,8)_u 3.9270696918503454e+01
c(1,8)_Fl 0
c(1,8)_Fu 7.4849739685163619e-02
c(0,9)_Rl 0
c(0,9)_Ru 39.4293730074836
c(8,9)_Fl 0
c(8,9)_Fu 7.4849739685163619e-02
c(6,9)_Rl 0
c(6,9)_Ru 0
Cost 3.9430373007483595e+01
